data/solutions/recovery/degenerate/intermediate/flexible/degenerate_intermediate_instance23/65.sol
Elapsed time: 100.08
Upper bound: 227953442.0
Planning weighted value: 9.34485701629e+11
C[0]=227953442.0
C[1]=227800504.0
C[2]=227798647.0
C[3]=227568065.0
C[4]=227216220.0
C[5]=226117645.0
C[6]=225494537.0
C[7]=224380672.0
C[8]=223486516.0
C[9]=222824081.0
C[10]=221765571.0
C[11]=0.0
y[0]=9
y[1]=3
y[2]=5
y[3]=1
y[4]=7
y[5]=2
y[6]=3
y[7]=5
y[8]=8
y[9]=2
y[10]=2
y[11]=6
y[12]=9
y[13]=7
y[14]=3
y[15]=5
y[16]=2
y[17]=9
y[18]=4
y[19]=0
y[20]=0
y[21]=1
y[22]=5
y[23]=2
y[24]=10
y[25]=8
y[26]=10
y[27]=8
y[28]=9
y[29]=8
y[30]=2
y[31]=10
y[32]=1
y[33]=0
y[34]=4
y[35]=3
y[36]=3
y[37]=4
y[38]=7
y[39]=9
y[40]=0
y[41]=10
y[42]=1
y[43]=7
y[44]=10
y[45]=9
y[46]=5
y[47]=8
y[48]=5
y[49]=2
y[50]=3
y[51]=8
y[52]=6
y[53]=3
y[54]=8
y[55]=9
y[56]=2
y[57]=1
y[58]=8
y[59]=6
y[60]=4
y[61]=1
y[62]=0
y[63]=7
y[64]=6
y[65]=2
y[66]=10
y[67]=9
y[68]=2
y[69]=10
y[70]=7
y[71]=7
y[72]=5
y[73]=9
y[74]=10
y[75]=6
y[76]=6
y[77]=4
