data/solutions/recovery/degenerate/intermediate/flexible/degenerate_intermediate_instance23/65.log

Log started (V12.6.3.0) Sat Apr 21 16:17:23 2018

New value for default parallel thread count: 1

Problem '/tmp/tmpc2rWXX.pyomo.lp' read.
Read time = 0.01 sec. (0.84 ticks)

Problem name         : /tmp/tmpc2rWXX.pyomo.lp
Objective sense      : Minimize
Variables            :     950  [Nneg: 1,  Binary: 936,  General Integer: 13]
Objective nonzeros   :       1
Linear constraints   :     182  [Less: 90,  Equal: 92]
  Nonzeros           :   60259
  RHS nonzeros       :     157

Variables            : Min LB: 0.000000         Max UB: 1.000000       
Objective nonzeros   : Min   : 1.000000         Max   : 1.000000       
Linear constraints   :
  Nonzeros           : Min   : 1.000000         Max   : 6.145599e+07   
  RHS nonzeros       : Min   : 1.000000         Max   : 8.000000       
Tried aggregator 2 times.
MIP Presolve eliminated 82 rows and 141 columns.
Aggregator did 5 substitutions.
Reduced MIP has 95 rows, 804 columns, and 2247 nonzeros.
Reduced MIP has 792 binaries, 12 generals, 0 SOSs, and 0 indicators.
Presolve time = 0.01 sec. (10.91 ticks)
Found incumbent of value 7.4076990e+08 after 0.01 sec. (12.44 ticks)
Probing time = 0.00 sec. (1.59 ticks)
Tried aggregator 1 time.
Reduced MIP has 95 rows, 804 columns, and 2247 nonzeros.
Reduced MIP has 792 binaries, 12 generals, 0 SOSs, and 0 indicators.
Presolve time = 0.00 sec. (1.15 ticks)
Probing time = 0.00 sec. (1.59 ticks)
Clique table members: 72.
MIP emphasis: balance optimality and feasibility.
MIP search method: dynamic search.
Parallel mode: none, using 1 thread.
Root relaxation solution time = 0.00 sec. (1.23 ticks)

        Nodes                                         Cuts/
   Node  Left     Objective  IInf  Best Integer    Best Bound    ItCnt     Gap

*     0+    0                       7.40770e+08        0.0000           100.00%
      0     0   2.25673e+08    28   7.40770e+08   2.25673e+08      118   69.54%
      0     0   2.25673e+08    24   7.40770e+08      Fract: 6      135   69.54%
      0     0   2.25673e+08    30   7.40770e+08      Fract: 4      154   69.54%
*     0+    0                       2.43847e+08   2.25673e+08             7.45%
*     0+    0                       2.41985e+08   2.25673e+08             6.74%
*     0+    0                       2.40762e+08   2.25673e+08             6.27%
      0     2   2.25673e+08    16   2.40762e+08   2.25673e+08      154    6.27%
Elapsed time = 0.05 sec. (57.81 ticks, tree = 0.01 MB, solutions = 4)
*   498+  450                       2.40282e+08   2.25673e+08             6.08%
*   498+  419                       2.38594e+08   2.25673e+08             5.42%
*   498+  401                       2.34190e+08   2.25673e+08             3.64%
*   499+  402                       2.34185e+08   2.25673e+08             3.63%
*   499+  396                       2.32698e+08   2.25673e+08             3.02%
*   500+  394                       2.31112e+08   2.25673e+08             2.35%
    500   396   2.25673e+08    17   2.31112e+08   2.25673e+08     2962    2.35%
    501   397   2.25673e+08    21   2.31112e+08   2.25673e+08     3336    2.35%
    502   398   2.25673e+08    20   2.31112e+08   2.25673e+08     3353    2.35%
    503   398   2.25673e+08    20   2.31112e+08   2.25673e+08     3354    2.35%
    504   399   2.25673e+08    17   2.31112e+08   2.25673e+08     3358    2.35%
    505   400   2.25673e+08    17   2.31112e+08   2.25673e+08     3365    2.35%
    506   400   2.25673e+08    17   2.31112e+08   2.25673e+08     3372    2.35%
    507   401   2.25673e+08    17   2.31112e+08   2.25673e+08     3373    2.35%
    508   401   2.25673e+08    18   2.31112e+08   2.25673e+08     3382    2.35%
*   701+  311                       2.30873e+08   2.25673e+08             2.25%
*   801+  268                       2.30127e+08   2.25673e+08             1.94%
    801   268   2.29650e+08    16   2.30127e+08   2.25673e+08     4628    1.94%
Elapsed time = 0.94 sec. (1129.13 ticks, tree = 0.14 MB, solutions = 12)
*   901+  226                       2.29650e+08   2.25673e+08             1.73%
*   901+  217                       2.29298e+08   2.25673e+08             1.58%
   2644  1279   2.25684e+08    40   2.29298e+08   2.25673e+08    11479    1.58%
   2645  1280   2.26166e+08    29   2.29298e+08   2.25673e+08    11512    1.58%
   2646  1281   2.26166e+08    30   2.29298e+08   2.25673e+08    11513    1.58%
   2647  1282   2.26166e+08    30   2.29298e+08   2.25673e+08    11515    1.58%
   2648  1283   2.26166e+08    31   2.29298e+08   2.25673e+08    11517    1.58%
   2649  1282        cutoff         2.29298e+08   2.25673e+08    11523    1.58%
   2650  1281        cutoff         2.29298e+08   2.25673e+08    11532    1.58%
   2651  1281   2.27261e+08    27   2.29298e+08   2.25673e+08    11714    1.58%
   2652  1280        cutoff         2.29298e+08   2.25673e+08    11716    1.58%
   2653  1281   2.25673e+08    30   2.29298e+08   2.25673e+08    11742    1.58%
Elapsed time = 1.69 sec. (2094.70 ticks, tree = 0.79 MB, solutions = 14)
   5917  3944   2.25673e+08    24   2.29298e+08   2.25673e+08    30806    1.58%
   5918  3945   2.25673e+08    25   2.29298e+08   2.25673e+08    30819    1.58%
   5919  3946   2.25673e+08    23   2.29298e+08   2.25673e+08    30821    1.58%
   5920  3947   2.25673e+08    24   2.29298e+08   2.25673e+08    30826    1.58%
   5921  3948   2.25673e+08    25   2.29298e+08   2.25673e+08    30831    1.58%
   5922  3949   2.25673e+08    25   2.29298e+08   2.25673e+08    30832    1.58%
   5923  3950   2.25673e+08    23   2.29298e+08   2.25673e+08    30833    1.58%
   5924  3951   2.25673e+08    28   2.29298e+08   2.25673e+08    30837    1.58%
   5925  3952   2.25673e+08    28   2.29298e+08   2.25673e+08    30838    1.58%
   5926  3953   2.25673e+08    24   2.29298e+08   2.25673e+08    30839    1.58%
Elapsed time = 2.39 sec. (3056.60 ticks, tree = 2.36 MB, solutions = 14)
   9504  7012   2.25673e+08    18   2.29298e+08   2.25673e+08    52415    1.58%
   9505  7013   2.25673e+08    19   2.29298e+08   2.25673e+08    52416    1.58%
   9506  7014   2.25673e+08    19   2.29298e+08   2.25673e+08    52417    1.58%
   9507  7015   2.25673e+08    19   2.29298e+08   2.25673e+08    52418    1.58%
   9508  7016   2.25673e+08    19   2.29298e+08   2.25673e+08    52419    1.58%
   9509  7017   2.25673e+08    18   2.29298e+08   2.25673e+08    52420    1.58%
   9510  7016    infeasible         2.29298e+08   2.25673e+08    52440    1.58%
   9511  7017   2.25673e+08    17   2.29298e+08   2.25673e+08    52446    1.58%
   9512  7018   2.25673e+08    18   2.29298e+08   2.25673e+08    52459    1.58%
   9513  7019   2.25673e+08    15   2.29298e+08   2.25673e+08    52461    1.58%
Elapsed time = 3.09 sec. (4012.08 ticks, tree = 4.20 MB, solutions = 14)
  11360  8466    infeasible         2.29298e+08   2.25673e+08    65759    1.58%
  11361  8467   2.25673e+08    16   2.29298e+08   2.25673e+08    65778    1.58%
  11362  8468   2.25673e+08    15   2.29298e+08   2.25673e+08    65782    1.58%
  11363  8469   2.25673e+08    15   2.29298e+08   2.25673e+08    65790    1.58%
  11364  8470   2.25673e+08    15   2.29298e+08   2.25673e+08    65792    1.58%
  11365  8471   2.25673e+08    15   2.29298e+08   2.25673e+08    65795    1.58%
  11366  8472   2.25673e+08    19   2.29298e+08   2.25673e+08    65827    1.58%
  11367  8473   2.25673e+08    18   2.29298e+08   2.25673e+08    65855    1.58%
  11368  8474   2.25673e+08    18   2.29298e+08   2.25673e+08    65859    1.58%
  11369  8475   2.25673e+08    19   2.29298e+08   2.25673e+08    65863    1.58%
Elapsed time = 3.92 sec. (4973.72 ticks, tree = 5.33 MB, solutions = 14)
  14214 10571   2.25673e+08    20   2.29298e+08   2.25673e+08    94583    1.58%
  14215 10572   2.25673e+08    20   2.29298e+08   2.25673e+08    94594    1.58%
  14216 10573   2.25673e+08    20   2.29298e+08   2.25673e+08    94599    1.58%
  14217 10574   2.25673e+08    20   2.29298e+08   2.25673e+08    94609    1.58%
  14218 10575   2.25673e+08    20   2.29298e+08   2.25673e+08    94610    1.58%
  14219 10576   2.25673e+08    21   2.29298e+08   2.25673e+08    94614    1.58%
  14220 10577   2.25673e+08    23   2.29298e+08   2.25673e+08    94617    1.58%
  14221 10578   2.25673e+08    23   2.29298e+08   2.25673e+08    94618    1.58%
  14222 10579   2.25673e+08    23   2.29298e+08   2.25673e+08    94620    1.58%
  14223 10580   2.25673e+08    20   2.29298e+08   2.25673e+08    94622    1.58%
Elapsed time = 4.68 sec. (5929.57 ticks, tree = 6.65 MB, solutions = 14)
  16274 11835   2.28249e+08    15   2.29298e+08   2.25673e+08   124078    1.58%
  16275 11836   2.28249e+08    15   2.29298e+08   2.25673e+08   124088    1.58%
  16276 11837   2.28249e+08    15   2.29298e+08   2.25673e+08   124089    1.58%
  16277 11838   2.28249e+08    15   2.29298e+08   2.25673e+08   124090    1.58%
  16278 11839   2.28249e+08    13   2.29298e+08   2.25673e+08   124114    1.58%
  16279 11840   2.28249e+08    15   2.29298e+08   2.25673e+08   124119    1.58%
  16280 11841   2.28249e+08    15   2.29298e+08   2.25673e+08   124135    1.58%
  16281 11842   2.28249e+08    15   2.29298e+08   2.25673e+08   124145    1.58%
  16282 11843   2.28249e+08    14   2.29298e+08   2.25673e+08   124169    1.58%
  16283 11844   2.28249e+08    14   2.29298e+08   2.25673e+08   124171    1.58%
Elapsed time = 5.45 sec. (6885.61 ticks, tree = 7.46 MB, solutions = 14)
  19305 14462   2.26263e+08    25   2.29298e+08   2.25673e+08   147636    1.58%
  19306 14463   2.26263e+08    30   2.29298e+08   2.25673e+08   147637    1.58%
  19307 14464   2.26263e+08    29   2.29298e+08   2.25673e+08   147638    1.58%
  19308 14465   2.26333e+08    36   2.29298e+08   2.25673e+08   147641    1.58%
  19309 14465   2.26421e+08    33   2.29298e+08   2.25673e+08   147643    1.58%
  19310 14465   2.26437e+08    33   2.29298e+08   2.25673e+08   147644    1.58%
  19311 14465   2.26456e+08    33   2.29298e+08   2.25673e+08   147645    1.58%
  19312 14466   2.26456e+08    33   2.29298e+08   2.25673e+08   147646    1.58%
  19313 14466   2.26475e+08    33   2.29298e+08   2.25673e+08   147648    1.58%
  19314 14466   2.26475e+08    33   2.29298e+08   2.25673e+08   147649    1.58%
Elapsed time = 6.15 sec. (7842.83 ticks, tree = 9.00 MB, solutions = 14)
  21474 16057   2.26674e+08    32   2.29298e+08   2.25673e+08   174695    1.58%
  21475 16058   2.26674e+08    28   2.29298e+08   2.25673e+08   174699    1.58%
  21476 16059   2.26674e+08    28   2.29298e+08   2.25673e+08   174700    1.58%
  21477 16060   2.26674e+08    28   2.29298e+08   2.25673e+08   174701    1.58%
  21478 16061   2.26674e+08    30   2.29298e+08   2.25673e+08   174703    1.58%
  21479 16062   2.26674e+08    28   2.29298e+08   2.25673e+08   174705    1.58%
  21480 16063   2.26674e+08    33   2.29298e+08   2.25673e+08   174719    1.58%
  21481 16064   2.26674e+08    31   2.29298e+08   2.25673e+08   174727    1.58%
  21482 16065   2.26674e+08    29   2.29298e+08   2.25673e+08   174732    1.58%
  21483 16066   2.26674e+08    28   2.29298e+08   2.25673e+08   174739    1.58%
Elapsed time = 6.89 sec. (8798.57 ticks, tree = 9.99 MB, solutions = 14)
  23014 17052   2.25673e+08    37   2.29298e+08   2.25673e+08   203697    1.58%
  23015 17053   2.25673e+08    28   2.29298e+08   2.25673e+08   203727    1.58%
  23016 17054   2.25673e+08    28   2.29298e+08   2.25673e+08   203741    1.58%
  23017 17055   2.25673e+08    29   2.29298e+08   2.25673e+08   203742    1.58%
  23018 17056   2.25673e+08    37   2.29298e+08   2.25673e+08   203795    1.58%
  23019 17057   2.25738e+08    28   2.29298e+08   2.25673e+08   203940    1.58%
  23020 17058   2.25673e+08    51   2.29298e+08   2.25673e+08   204027    1.58%
  23021 17059   2.25673e+08    51   2.29298e+08   2.25673e+08   204028    1.58%
  23022 17060   2.25673e+08    48   2.29298e+08   2.25673e+08   204037    1.58%
  28149 21212   2.25673e+08    31   2.29298e+08   2.25673e+08   279139    1.58%
Elapsed time = 9.73 sec. (12613.42 ticks, tree = 13.65 MB, solutions = 14)
  33518 25522        cutoff         2.29298e+08   2.25673e+08   381290    1.58%
  33519 25521    infeasible         2.29298e+08   2.25673e+08   381365    1.58%
  33520 25520        cutoff         2.29298e+08   2.25673e+08   381402    1.58%
  33521 25519    infeasible         2.29298e+08   2.25673e+08   381455    1.58%
  33522 25518    infeasible         2.29298e+08   2.25673e+08   381535    1.58%
  33523 25517    infeasible         2.29298e+08   2.25673e+08   381566    1.58%
  33524 25518   2.25673e+08    32   2.29298e+08   2.25673e+08   381646    1.58%
  33525 25519   2.25673e+08    27   2.29298e+08   2.25673e+08   381669    1.58%
  33526 25520   2.25673e+08    31   2.29298e+08   2.25673e+08   381698    1.58%
  33527 25521   2.25673e+08    27   2.29298e+08   2.25673e+08   381699    1.58%
Elapsed time = 12.53 sec. (16456.63 ticks, tree = 16.27 MB, solutions = 14)
  38325 29245   2.25673e+08    21   2.29298e+08   2.25673e+08   467352    1.58%
  38326 29246   2.25673e+08    22   2.29298e+08   2.25673e+08   467355    1.58%
  38327 29247   2.25673e+08    25   2.29298e+08   2.25673e+08   467362    1.58%
  38328 29248   2.25673e+08    22   2.29298e+08   2.25673e+08   467363    1.58%
  38329 29249   2.25673e+08    23   2.29298e+08   2.25673e+08   467364    1.58%
  38330 29250   2.25673e+08    23   2.29298e+08   2.25673e+08   467369    1.58%
  38331 29251   2.25673e+08    21   2.29298e+08   2.25673e+08   467374    1.58%
  38332 29252   2.25673e+08    21   2.29298e+08   2.25673e+08   467380    1.58%
  38333 29253   2.25673e+08    22   2.29298e+08   2.25673e+08   467394    1.58%
  38334 29254   2.25673e+08    27   2.29298e+08   2.25673e+08   467398    1.58%
Elapsed time = 15.31 sec. (20274.52 ticks, tree = 18.62 MB, solutions = 14)
  41786 32130   2.26674e+08    32   2.29298e+08   2.25673e+08   545256    1.58%
  41787 32131   2.26674e+08    42   2.29298e+08   2.25673e+08   545282    1.58%
  41788 32132   2.26674e+08    37   2.29298e+08   2.25673e+08   545362    1.58%
  41789 32133   2.26674e+08    37   2.29298e+08   2.25673e+08   545382    1.58%
  41790 32134   2.26674e+08    34   2.29298e+08   2.25673e+08   545383    1.58%
  41791 32135   2.26674e+08    41   2.29298e+08   2.25673e+08   545483    1.58%
  41792 32136   2.26674e+08    44   2.29298e+08   2.25673e+08   545505    1.58%
  41793 32137   2.26674e+08    43   2.29298e+08   2.25673e+08   545507    1.58%
  41794 32138   2.26674e+08    42   2.29298e+08   2.25673e+08   545517    1.58%
  41795 32139   2.26674e+08    42   2.29298e+08   2.25673e+08   545518    1.58%
Elapsed time = 18.04 sec. (24099.62 ticks, tree = 20.46 MB, solutions = 14)
  44941 34804   2.25673e+08    33   2.29298e+08   2.25673e+08   620343    1.58%
  44942 34805   2.25673e+08    33   2.29298e+08   2.25673e+08   620349    1.58%
  44943 34806   2.26029e+08    41   2.29298e+08   2.25673e+08   620638    1.58%
  44944 34807   2.26029e+08    41   2.29298e+08   2.25673e+08   620642    1.58%
  44945 34808   2.26029e+08    39   2.29298e+08   2.25673e+08   620644    1.58%
  44946 34809   2.26029e+08    37   2.29298e+08   2.25673e+08   620654    1.58%
  44947 34810   2.26029e+08    33   2.29298e+08   2.25673e+08   620687    1.58%
  44948 34811   2.26029e+08    33   2.29298e+08   2.25673e+08   620688    1.58%
  44949 34812   2.26029e+08    33   2.29298e+08   2.25673e+08   620690    1.58%
  44950 34813   2.26029e+08    36   2.29298e+08   2.25673e+08   620698    1.58%
Elapsed time = 21.03 sec. (27928.87 ticks, tree = 23.06 MB, solutions = 14)
  48033 37041   2.28734e+08    12   2.29298e+08   2.25673e+08   699497    1.58%
  48034 37042   2.28734e+08    10   2.29298e+08   2.25673e+08   699522    1.58%
  48035 37041        cutoff         2.29298e+08   2.25673e+08   699557    1.58%
  48036 37042   2.28734e+08    14   2.29298e+08   2.25673e+08   699567    1.58%
  48037 37043   2.28734e+08    15   2.29298e+08   2.25673e+08   699577    1.58%
  48038 37044   2.28734e+08    13   2.29298e+08   2.25673e+08   699578    1.58%
  48039 37045   2.28734e+08    13   2.29298e+08   2.25673e+08   699582    1.58%
  48040 37044        cutoff         2.29298e+08   2.25673e+08   699583    1.58%
  48041 37045   2.29185e+08    13   2.29298e+08   2.25673e+08   699598    1.58%
  48042 37044        cutoff         2.29298e+08   2.25673e+08   699605    1.58%
Elapsed time = 24.66 sec. (31751.15 ticks, tree = 24.47 MB, solutions = 14)
* 49501+37942                       2.29257e+08   2.25673e+08             1.56%
  52007 40006   2.26674e+08    44   2.29257e+08   2.25673e+08   775036    1.56%
  52008 40007   2.26674e+08    45   2.29257e+08   2.25673e+08   775045    1.56%
  52009 40008   2.26674e+08    46   2.29257e+08   2.25673e+08   775052    1.56%
  52010 40009   2.26674e+08    45   2.29257e+08   2.25673e+08   775056    1.56%
  52011 40010   2.26674e+08    45   2.29257e+08   2.25673e+08   775073    1.56%
  52012 40011   2.26674e+08    45   2.29257e+08   2.25673e+08   775075    1.56%
  52013 40012   2.26674e+08    45   2.29257e+08   2.25673e+08   775076    1.56%
  52014 40013   2.26674e+08    50   2.29257e+08   2.25673e+08   775097    1.56%
  52015 40014   2.26674e+08    44   2.29257e+08   2.25673e+08   775099    1.56%
  52016 40013    infeasible         2.29257e+08   2.25673e+08   775243    1.56%
Elapsed time = 28.40 sec. (35576.34 ticks, tree = 26.40 MB, solutions = 15)
* 55001+41525                       2.28841e+08   2.25673e+08             1.38%
  55141 41664   2.25788e+08    29   2.28841e+08   2.25673e+08   845252    1.38%
  55142 41665   2.25788e+08    30   2.28841e+08   2.25673e+08   845257    1.38%
  55143 41666   2.25788e+08    28   2.28841e+08   2.25673e+08   845269    1.38%
  55144 41667   2.26770e+08    36   2.28841e+08   2.25673e+08   845328    1.38%
  55145 41668   2.26899e+08    37   2.28841e+08   2.25673e+08   845331    1.38%
  55146 41669   2.27056e+08    30   2.28841e+08   2.25673e+08   845337    1.38%
  55147 41670   2.27110e+08    30   2.28841e+08   2.25673e+08   845339    1.38%
  55148 41671   2.27237e+08    30   2.28841e+08   2.25673e+08   845340    1.38%
  55149 41672   2.27304e+08    30   2.28841e+08   2.25673e+08   845341    1.38%
  55150 41673   2.27355e+08    37   2.28841e+08   2.25673e+08   845344    1.38%
Elapsed time = 32.23 sec. (39395.70 ticks, tree = 27.44 MB, solutions = 16)
  59509 44993   2.26069e+08    50   2.28841e+08   2.25673e+08   914347    1.38%
  59510 44994   2.26069e+08    45   2.28841e+08   2.25673e+08   914352    1.38%
  59511 44995   2.26069e+08    42   2.28841e+08   2.25673e+08   914357    1.38%
  59512 44996   2.26069e+08    45   2.28841e+08   2.25673e+08   914364    1.38%
  59513 44997   2.27953e+08    28   2.28841e+08   2.25673e+08   914379    1.38%
  59514 44998   2.27953e+08    30   2.28841e+08   2.25673e+08   914385    1.38%
  59515 44999   2.27953e+08    29   2.28841e+08   2.25673e+08   914387    1.38%
  59516 45000   2.27953e+08    26   2.28841e+08   2.25673e+08   914400    1.38%
  59517 45001   2.27953e+08    28   2.28841e+08   2.25673e+08   914407    1.38%
  59518 45002   2.27953e+08    27   2.28841e+08   2.25673e+08   914409    1.38%
Elapsed time = 35.79 sec. (43226.71 ticks, tree = 29.61 MB, solutions = 16)
  62761 47614   2.25796e+08    43   2.28841e+08   2.25673e+08   987313    1.38%
  62762 47615   2.25796e+08    44   2.28841e+08   2.25673e+08   987316    1.38%
  62763 47616   2.25796e+08    43   2.28841e+08   2.25673e+08   987317    1.38%
  62764 47617   2.25981e+08    39   2.28841e+08   2.25673e+08   987343    1.38%
  62765 47618   2.26349e+08    37   2.28841e+08   2.25673e+08   987345    1.38%
  62766 47619   2.26463e+08    36   2.28841e+08   2.25673e+08   987347    1.38%
  62767 47620   2.26481e+08    36   2.28841e+08   2.25673e+08   987349    1.38%
  62768 47621   2.26483e+08    37   2.28841e+08   2.25673e+08   987351    1.38%
  62769 47622   2.26823e+08    36   2.28841e+08   2.25673e+08   987356    1.38%
  62770 47622   2.26823e+08    36   2.28841e+08   2.25673e+08   987357    1.38%
Elapsed time = 39.37 sec. (47055.00 ticks, tree = 31.31 MB, solutions = 16)
  66565 50573   2.27282e+08    33   2.28841e+08   2.25673e+08  1070736    1.38%
  66566 50574   2.27282e+08    31   2.28841e+08   2.25673e+08  1070737    1.38%
  66567 50573        cutoff         2.28841e+08   2.25673e+08  1070739    1.38%
  66568 50572        cutoff         2.28841e+08   2.25673e+08  1070746    1.38%
  66569 50571        cutoff         2.28841e+08   2.25673e+08  1070860    1.38%
  66570 50571   2.25673e+08    36   2.28841e+08   2.25673e+08  1071017    1.38%
  66571 50572   2.25673e+08    38   2.28841e+08   2.25673e+08  1071019    1.38%
  66572 50573   2.25673e+08    36   2.28841e+08   2.25673e+08  1071040    1.38%
  66573 50574   2.25792e+08    33   2.28841e+08   2.25673e+08  1071141    1.38%
  66574 50575   2.25804e+08    33   2.28841e+08   2.25673e+08  1071154    1.38%
Elapsed time = 43.03 sec. (50946.26 ticks, tree = 33.19 MB, solutions = 16)
* 66901+46217                       2.28249e+08   2.25673e+08             1.13%
* 66901+45359                       2.27989e+08   2.25673e+08             1.02%
  70619 48692   2.26180e+08    39   2.27989e+08   2.25673e+08  1143791    1.02%
  70620 48693   2.26180e+08    38   2.27989e+08   2.25673e+08  1143799    1.02%
  70621 48694   2.26180e+08    36   2.27989e+08   2.25673e+08  1143800    1.02%
  70622 48695   2.26180e+08    35   2.27989e+08   2.25673e+08  1143811    1.02%
  70623 48696   2.26180e+08    37   2.27989e+08   2.25673e+08  1143826    1.02%
  70624 48697   2.26180e+08    39   2.27989e+08   2.25673e+08  1143832    1.02%
  70625 48698   2.26180e+08    37   2.27989e+08   2.25673e+08  1143836    1.02%
  70626 48699   2.26180e+08    37   2.27989e+08   2.25673e+08  1143849    1.02%
  70627 48700   2.26180e+08    40   2.27989e+08   2.25673e+08  1143864    1.02%
  70628 48701   2.26180e+08    36   2.27989e+08   2.25673e+08  1143872    1.02%
Elapsed time = 46.59 sec. (54766.52 ticks, tree = 31.77 MB, solutions = 18)
* 73501+50088                       2.27953e+08   2.25673e+08             1.00%
  74159 50422   2.25673e+08    19   2.27953e+08   2.25673e+08  1228740    1.00%
  74160 50423   2.25673e+08    19   2.27953e+08   2.25673e+08  1228756    1.00%
  74161 50424   2.25673e+08    19   2.27953e+08   2.25673e+08  1228759    1.00%
  74162 50425   2.25673e+08    19   2.27953e+08   2.25673e+08  1228776    1.00%
  74163 50426   2.25673e+08    36   2.27953e+08   2.25673e+08  1229110    1.00%
  74164 50426   2.25990e+08    36   2.27953e+08   2.25673e+08  1229305    1.00%
  74165 50427   2.25990e+08    38   2.27953e+08   2.25673e+08  1229311    1.00%
  74166 50428   2.25990e+08    35   2.27953e+08   2.25673e+08  1229317    1.00%
  74167 50429   2.25994e+08    37   2.27953e+08   2.25673e+08  1229325    1.00%
  74168 50430   2.25994e+08    38   2.27953e+08   2.25673e+08  1229329    1.00%
Elapsed time = 50.19 sec. (58605.04 ticks, tree = 32.86 MB, solutions = 19)
  77538 52877   2.25673e+08    50   2.27953e+08   2.25673e+08  1308214    1.00%
  77539 52878   2.25673e+08    49   2.27953e+08   2.25673e+08  1308216    1.00%
  77540 52879   2.25673e+08    49   2.27953e+08   2.25673e+08  1308217    1.00%
  77541 52880   2.25673e+08    46   2.27953e+08   2.25673e+08  1308230    1.00%
  77542 52881   2.25673e+08    46   2.27953e+08   2.25673e+08  1308232    1.00%
  77543 52882   2.25673e+08    45   2.27953e+08   2.25673e+08  1308234    1.00%
  77544 52883   2.25673e+08    44   2.27953e+08   2.25673e+08  1308237    1.00%
  77545 52884   2.25673e+08    43   2.27953e+08   2.25673e+08  1308246    1.00%
  77546 52885   2.25673e+08    44   2.27953e+08   2.25673e+08  1308248    1.00%
  77547 52886   2.25673e+08    45   2.27953e+08   2.25673e+08  1308252    1.00%
Elapsed time = 53.74 sec. (62455.43 ticks, tree = 34.36 MB, solutions = 19)
  82437 56552   2.26435e+08    35   2.27953e+08   2.25673e+08  1386452    1.00%
  82438 56553   2.26451e+08    34   2.27953e+08   2.25673e+08  1386461    1.00%
  82439 56554   2.26452e+08    35   2.27953e+08   2.25673e+08  1386462    1.00%
  82440 56555   2.26491e+08    33   2.27953e+08   2.25673e+08  1386471    1.00%
  82441 56556   2.26493e+08    33   2.27953e+08   2.25673e+08  1386477    1.00%
  82442 56557   2.26495e+08    34   2.27953e+08   2.25673e+08  1386483    1.00%
  82443 56558   2.27049e+08    30   2.27953e+08   2.25673e+08  1386492    1.00%
  82444 56559   2.27076e+08    29   2.27953e+08   2.25673e+08  1386500    1.00%
  82445 56560   2.27220e+08    27   2.27953e+08   2.25673e+08  1386502    1.00%
  82446 56561   2.27220e+08    27   2.27953e+08   2.25673e+08  1386503    1.00%
Elapsed time = 57.27 sec. (66273.90 ticks, tree = 36.77 MB, solutions = 19)
  87101 60221   2.25673e+08    22   2.27953e+08   2.25673e+08  1459712    1.00%
  87102 60222   2.25673e+08    21   2.27953e+08   2.25673e+08  1459715    1.00%
  87103 60223   2.25678e+08    36   2.27953e+08   2.25673e+08  1459754    1.00%
  87104 60224   2.25682e+08    36   2.27953e+08   2.25673e+08  1459756    1.00%
  87105 60225   2.25682e+08    36   2.27953e+08   2.25673e+08  1459757    1.00%
  87106 60226   2.25682e+08    36   2.27953e+08   2.25673e+08  1459758    1.00%
  87107 60227   2.25739e+08    34   2.27953e+08   2.25673e+08  1459766    1.00%
  87108 60228   2.25753e+08    34   2.27953e+08   2.25673e+08  1459769    1.00%
  87109 60229   2.25753e+08    35   2.27953e+08   2.25673e+08  1459777    1.00%
  87110 60230   2.25753e+08    35   2.27953e+08   2.25673e+08  1459780    1.00%
Elapsed time = 60.75 sec. (70096.54 ticks, tree = 39.14 MB, solutions = 19)
  92071 63943   2.26070e+08    36   2.27953e+08   2.25673e+08  1538579    1.00%
  92072 63944   2.26077e+08    34   2.27953e+08   2.25673e+08  1538584    1.00%
  92073 63945   2.26652e+08    29   2.27953e+08   2.25673e+08  1538604    1.00%
  92074 63945   2.27399e+08    28   2.27953e+08   2.25673e+08  1538616    1.00%
  92075 63945   2.27399e+08    30   2.27953e+08   2.25673e+08  1538622    1.00%
  92076 63944        cutoff         2.27953e+08   2.25673e+08  1538623    1.00%
  92077 63943    infeasible         2.27953e+08   2.25673e+08  1538742    1.00%
  92078 63942        cutoff         2.27953e+08   2.25673e+08  1538957    1.00%
  92079 63941    infeasible         2.27953e+08   2.25673e+08  1538957    1.00%
  92080 63940        cutoff         2.27953e+08   2.25673e+08  1539208    1.00%
Elapsed time = 64.28 sec. (73932.40 ticks, tree = 41.54 MB, solutions = 19)
  96247 66876   2.25673e+08    32   2.27953e+08   2.25673e+08  1617929    1.00%
  96248 66877   2.25673e+08    27   2.27953e+08   2.25673e+08  1617983    1.00%
  96249 66878   2.25673e+08    30   2.27953e+08   2.25673e+08  1618030    1.00%
  96250 66879   2.25673e+08    32   2.27953e+08   2.25673e+08  1618049    1.00%
  96251 66880   2.25673e+08    32   2.27953e+08   2.25673e+08  1618051    1.00%
  96252 66881   2.25673e+08    28   2.27953e+08   2.25673e+08  1618075    1.00%
  96253 66882   2.25673e+08    29   2.27953e+08   2.25673e+08  1618077    1.00%
  96254 66883   2.25673e+08    28   2.27953e+08   2.25673e+08  1618090    1.00%
  96255 66884   2.25673e+08    28   2.27953e+08   2.25673e+08  1618092    1.00%
  96256 66885   2.25673e+08    26   2.27953e+08   2.25673e+08  1618094    1.00%
Elapsed time = 67.89 sec. (77753.28 ticks, tree = 45.35 MB, solutions = 19)
 100535 69990        cutoff         2.27953e+08   2.25673e+08  1691841    1.00%
 100536 69989        cutoff         2.27953e+08   2.25673e+08  1691875    1.00%
 100537 69988        cutoff         2.27953e+08   2.25673e+08  1691897    1.00%
 100538 69987        cutoff         2.27953e+08   2.25673e+08  1692003    1.00%
 100539 69986        cutoff         2.27953e+08   2.25673e+08  1692038    1.00%
 100540 69987   2.25673e+08    22   2.27953e+08   2.25673e+08  1692105    1.00%
 100541 69988   2.25673e+08    28   2.27953e+08   2.25673e+08  1692132    1.00%
 100542 69988   2.25821e+08    25   2.27953e+08   2.25673e+08  1692145    1.00%
 100543 69987        cutoff         2.27953e+08   2.25673e+08  1692146    1.00%
 100544 69987   2.26435e+08    25   2.27953e+08   2.25673e+08  1692363    1.00%
Elapsed time = 71.44 sec. (81587.27 ticks, tree = 48.88 MB, solutions = 19)
 104187 72496   2.25673e+08    29   2.27953e+08   2.25673e+08  1751287    1.00%
 104188 72497   2.25673e+08    28   2.27953e+08   2.25673e+08  1751300    1.00%
 104189 72498   2.25673e+08    27   2.27953e+08   2.25673e+08  1751313    1.00%
 104190 72499   2.25673e+08    27   2.27953e+08   2.25673e+08  1751314    1.00%
 104191 72500   2.25673e+08    27   2.27953e+08   2.25673e+08  1751315    1.00%
 104192 72501   2.25673e+08    26   2.27953e+08   2.25673e+08  1751316    1.00%
 104193 72502   2.25673e+08    26   2.27953e+08   2.25673e+08  1751317    1.00%
 104194 72503   2.25673e+08    26   2.27953e+08   2.25673e+08  1751320    1.00%
 104195 72504   2.25673e+08    26   2.27953e+08   2.25673e+08  1751346    1.00%
 104196 72505   2.25673e+08    32   2.27953e+08   2.25673e+08  1751352    1.00%
Elapsed time = 75.00 sec. (85405.96 ticks, tree = 68.17 MB, solutions = 19)
 107609 75143   2.25673e+08    20   2.27953e+08   2.25673e+08  1827360    1.00%
 107610 75144   2.25673e+08    20   2.27953e+08   2.25673e+08  1827384    1.00%
 107611 75145   2.25673e+08    19   2.27953e+08   2.25673e+08  1827423    1.00%
 107612 75146   2.25673e+08    19   2.27953e+08   2.25673e+08  1827432    1.00%
 107613 75147   2.25673e+08    19   2.27953e+08   2.25673e+08  1827439    1.00%
 107614 75148   2.25673e+08    19   2.27953e+08   2.25673e+08  1827455    1.00%
 107615 75149   2.25673e+08    20   2.27953e+08   2.25673e+08  1827476    1.00%
 107616 75150   2.25673e+08    29   2.27953e+08   2.25673e+08  1827616    1.00%
 107617 75151   2.25673e+08    31   2.27953e+08   2.25673e+08  1827780    1.00%
 107618 75150        cutoff         2.27953e+08   2.25673e+08  1827790    1.00%
Elapsed time = 78.63 sec. (89241.17 ticks, tree = 71.37 MB, solutions = 19)
 110930 77177   2.27216e+08    19   2.27953e+08   2.25673e+08  1911563    1.00%
 110931 77176    infeasible         2.27953e+08   2.25673e+08  1911563    1.00%
 110932 77177   2.27216e+08    18   2.27953e+08   2.25673e+08  1911564    1.00%
 110933 77178   2.27216e+08    19   2.27953e+08   2.25673e+08  1911565    1.00%
 110934 77179   2.27216e+08    20   2.27953e+08   2.25673e+08  1911570    1.00%
 110935 77180   2.27216e+08    19   2.27953e+08   2.25673e+08  1911580    1.00%
 110936 77181   2.27216e+08    20   2.27953e+08   2.25673e+08  1911581    1.00%
 110937 77180        cutoff         2.27953e+08   2.25673e+08  1911583    1.00%
 110938 77181   2.27216e+08    17   2.27953e+08   2.25673e+08  1911594    1.00%
 110939 77182   2.27216e+08    16   2.27953e+08   2.25673e+08  1911596    1.00%
Elapsed time = 82.23 sec. (93058.38 ticks, tree = 73.22 MB, solutions = 19)
 119958 84693        cutoff         2.27953e+08   2.25673e+08  1972438    1.00%
 119959 84694   2.25673e+08    25   2.27953e+08   2.25673e+08  1972485    1.00%
 119960 84695   2.26149e+08    20   2.27953e+08   2.25673e+08  1972491    1.00%
 119961 84696   2.26149e+08    19   2.27953e+08   2.25673e+08  1972492    1.00%
 119962 84697   2.26149e+08    17   2.27953e+08   2.25673e+08  1972502    1.00%
 119963 84698   2.26149e+08    19   2.27953e+08   2.25673e+08  1972512    1.00%
 119964 84699   2.26149e+08    19   2.27953e+08   2.25673e+08  1972513    1.00%
 119965 84700   2.26149e+08    19   2.27953e+08   2.25673e+08  1972514    1.00%
 119966 84701   2.26149e+08    19   2.27953e+08   2.25673e+08  1972515    1.00%
 119967 84702   2.26149e+08    20   2.27953e+08   2.25673e+08  1972518    1.00%
Elapsed time = 85.29 sec. (96877.10 ticks, tree = 78.78 MB, solutions = 19)
 126993 90473   2.25673e+08    29   2.27953e+08   2.25673e+08  2045886    1.00%
 126994 90474   2.25673e+08    26   2.27953e+08   2.25673e+08  2045895    1.00%
 126995 90475   2.25673e+08    25   2.27953e+08   2.25673e+08  2045922    1.00%
 126996 90476   2.25673e+08    29   2.27953e+08   2.25673e+08  2045932    1.00%
 126997 90477   2.25673e+08    27   2.27953e+08   2.25673e+08  2045933    1.00%
 126998 90478   2.25673e+08    25   2.27953e+08   2.25673e+08  2045965    1.00%
 126999 90479   2.25673e+08    26   2.27953e+08   2.25673e+08  2045969    1.00%
 127000 90480   2.25673e+08    24   2.27953e+08   2.25673e+08  2045993    1.00%
 127001 90481   2.25673e+08    23   2.27953e+08   2.25673e+08  2046014    1.00%
 127002 90482   2.25724e+08    33   2.27953e+08   2.25673e+08  2046217    1.00%
Elapsed time = 88.62 sec. (100704.08 ticks, tree = 82.93 MB, solutions = 19)
 130601 93238   2.27385e+08    22   2.27953e+08   2.25673e+08  2119571    1.00%
 130602 93237        cutoff         2.27953e+08   2.25673e+08  2119578    1.00%
 130603 93238   2.27385e+08    22   2.27953e+08   2.25673e+08  2119581    1.00%
 130604 93239   2.27385e+08    20   2.27953e+08   2.25673e+08  2119586    1.00%
 130605 93240   2.27385e+08    23   2.27953e+08   2.25673e+08  2119590    1.00%
 130606 93241   2.27385e+08    23   2.27953e+08   2.25673e+08  2119593    1.00%
 130607 93241   2.27385e+08    22   2.27953e+08   2.25673e+08  2119595    1.00%
 130608 93240        cutoff         2.27953e+08   2.25673e+08  2119601    1.00%
 130609 93241   2.25673e+08    19   2.27953e+08   2.25673e+08  2119606    1.00%
 130610 93242   2.25673e+08    19   2.27953e+08   2.25673e+08  2119607    1.00%
Elapsed time = 92.13 sec. (104590.73 ticks, tree = 84.69 MB, solutions = 19)
 133700 95546   2.25673e+08    38   2.27953e+08   2.25673e+08  2172631    1.00%
 133701 95547   2.25673e+08    41   2.27953e+08   2.25673e+08  2172660    1.00%
 133702 95548   2.25673e+08    40   2.27953e+08   2.25673e+08  2172669    1.00%
 133703 95549   2.25673e+08    34   2.27953e+08   2.25673e+08  2172728    1.00%
 133704 95550   2.25673e+08    33   2.27953e+08   2.25673e+08  2172765    1.00%
 133705 95551   2.25673e+08    34   2.27953e+08   2.25673e+08  2172776    1.00%
 133706 95552   2.25673e+08    33   2.27953e+08   2.25673e+08  2172794    1.00%
 133707 95553   2.25673e+08    30   2.27953e+08   2.25673e+08  2172795    1.00%
 133708 95554   2.25673e+08    35   2.27953e+08   2.25673e+08  2172813    1.00%
 133709 95555   2.25673e+08    33   2.27953e+08   2.25673e+08  2172825    1.00%
Elapsed time = 95.47 sec. (108416.49 ticks, tree = 86.24 MB, solutions = 19)
 138414 99239        cutoff         2.27953e+08   2.25673e+08  2247018    1.00%
 138415 99238        cutoff         2.27953e+08   2.25673e+08  2247046    1.00%
 138416 99237        cutoff         2.27953e+08   2.25673e+08  2247110    1.00%
 138417 99236        cutoff         2.27953e+08   2.25673e+08  2247205    1.00%
 138418 99237   2.25673e+08    21   2.27953e+08   2.25673e+08  2247220    1.00%
 138419 99238   2.25673e+08    21   2.27953e+08   2.25673e+08  2247222    1.00%
 138420 99239   2.25673e+08    33   2.27953e+08   2.25673e+08  2247292    1.00%
 138421 99240   2.25673e+08    33   2.27953e+08   2.25673e+08  2247298    1.00%
 138422 99241   2.25673e+08    30   2.27953e+08   2.25673e+08  2247305    1.00%
 138423 99242   2.25929e+08    30   2.27953e+08   2.25673e+08  2247334    1.00%
Elapsed time = 99.04 sec. (112245.19 ticks, tree = 88.68 MB, solutions = 19)

Cover cuts applied:  451
Mixed integer rounding cuts applied:  14
Zero-half cuts applied:  3
Gomory fractional cuts applied:  9

Root node processing (before b&c):
  Real time             =    0.05 sec. (57.93 ticks)
Sequential b&c:
  Real time             =   99.95 sec. (113200.84 ticks)
                          ------------
Total (root+branch&cut) =  100.00 sec. (113258.77 ticks)

Solution pool: 19 solutions saved.

MIP - Time limit exceeded, integer feasible:  Objective =  2.2795344200e+08
Current MIP best bound =  2.2567326400e+08 (gap = 2.28018e+06, 1.00%)
Solution time =  100.00 sec.  Iterations = 2268032  Nodes = 139655 (99872)
Deterministic time = 113258.78 ticks  (1132.58 ticks/sec)


Incumbent solution written to file '/tmp/tmpUyJyqZ.cplex.sol'.
